CUST NO.   XCOORD.    YCOORD.    DEMAND   READY TIME   DUE DATE   SERVICE TIME
    1      40.00      50.00       0.00       0.00    3390.00       0.00
    2      52.00      75.00      10.00      71.00     711.00      90.00
    3      45.00      70.00      30.00      20.00     660.00      90.00
    4      62.00      69.00      10.00     927.00    1567.00      90.00
    5      60.00      66.00      10.00    1021.00    1661.00      90.00
    6      42.00      65.00      10.00      15.00     655.00      90.00
    7      16.00      42.00      20.00     257.00     897.00      90.00
    8      58.00      70.00      20.00     833.00    1473.00      90.00
    9      34.00      60.00      20.00    2647.00    3287.00      90.00
   10      28.00      70.00      10.00    2361.00    3001.00      90.00
   11      35.00      66.00      10.00    2551.00    3191.00      90.00
   12      35.00      69.00      10.00    2458.00    3098.00      90.00
   13      25.00      85.00      20.00    1879.00    2519.00      90.00
   14      22.00      75.00      30.00    2165.00    2805.00      90.00
   15      22.00      85.00      10.00    1786.00    2426.00      90.00
   16      20.00      80.00      40.00    1976.00    2616.00      90.00
   17      20.00      85.00      40.00    1694.00    2334.00      90.00
   18      18.00      75.00      20.00    2071.00    2711.00      90.00
   19      15.00      75.00      20.00    1502.00    2142.00      90.00
   20      15.00      80.00      10.00    1597.00    2237.00      90.00
   21      30.00      50.00      10.00      10.00     650.00      90.00
   22      30.00      56.00      20.00    2648.00    3288.00      90.00
   23      28.00      52.00      20.00      12.00     652.00      90.00
   24      14.00      66.00      10.00    1403.00    2043.00      90.00
   25      25.00      50.00      10.00      15.00     655.00      90.00
   26      22.00      66.00      40.00    2264.00    2904.00      90.00
   27       8.00      62.00      10.00    1305.00    1945.00      90.00
   28      23.00      52.00      10.00      17.00     657.00      90.00
   29       4.00      55.00      20.00    1207.00    1847.00      90.00
   30      20.00      50.00      10.00     158.00     798.00      90.00
   31      20.00      55.00      10.00      63.00     703.00      90.00
   32      10.00      35.00      20.00     541.00    1181.00      90.00
   33      10.00      40.00      30.00     353.00     993.00      90.00
   34       8.00      40.00      40.00     445.00    1085.00      90.00
   35       8.00      45.00      20.00    1106.00    1746.00      90.00
   36       5.00      35.00      10.00     636.00    1276.00      90.00
   37       5.00      45.00      10.00    1013.00    1653.00      90.00
   38       2.00      40.00      20.00     731.00    1371.00      90.00
   39       0.00      40.00      30.00     823.00    1463.00      90.00
   40       0.00      45.00      20.00     918.00    1558.00      90.00
   41      36.00      18.00      10.00    1579.00    2219.00      90.00
   42      35.00      32.00      10.00    2518.00    3158.00      90.00
   43      33.00      32.00      20.00    2426.00    3066.00      90.00
   44      33.00      35.00      10.00    2333.00    2973.00      90.00
   45      32.00      20.00      10.00    1673.00    2313.00      90.00
   46      30.00      30.00      10.00    1865.00    2505.00      90.00
   47      34.00      25.00      30.00    1769.00    2409.00      90.00
   48      30.00      35.00      10.00    2240.00    2880.00      90.00
   49      36.00      40.00      10.00    2616.00    3256.00      90.00
   50      48.00      20.00      10.00     727.00    1367.00      90.00
   51      26.00      32.00      10.00    2052.00    2692.00      90.00
